(set-logic HORN)


(declare-fun |state| ( Int Bool Bool Bool Int Int Int Int Int Int Int Bool Bool Int Bool Bool Bool Bool Bool Bool Bool ) Bool)

(assert
  (forall ( (A Int) (B Int) (C Bool) (D Bool) (E Bool) (F Bool) (G Int) (H Int) (I Bool) (J Bool) (K Int) (L Int) (M Int) (N Int) (O Bool) (P Bool) (Q Bool) (R Bool) (S Bool) (T Bool) (U Int) ) 
    (=>
      (and
        (let ((a!1 (or (and (not D) (not F)) (= (+ G (* (- 1) U) (* (- 1) A)) 0))))
  (and (= L K)
       (= M G)
       (= M L)
       (= N 0)
       (= N U)
       (= J T)
       (= T S)
       (= R Q)
       (= P O)
       (= I R)
       (or (not D) (= H B) F)
       (or D (= B 0) (not F))
       (or D (= G U) F)
       (or (and D (not F)) (= H 1))
       (or (and (not D) F) (= B 2))
       a!1
       (not J)
       (= P true)
       (not I)
       (= H A)))
      )
      (state N I J P M G U L H A K T R B D F S Q O C E)
    )
  )
)
(assert
  (forall ( (A Int) (B Int) (C Bool) (D Bool) (E Bool) (F Bool) (G Int) (H Int) (I Bool) (J Bool) (K Int) (L Int) (M Int) (N Int) (O Bool) (P Bool) (Q Int) (R Bool) (S Bool) (T Bool) (U Bool) (V Int) (W Bool) (X Bool) (Y Bool) (Z Bool) (A1 Int) (B1 Int) (C1 Bool) (D1 Bool) (E1 Int) (F1 Int) (G1 Int) (H1 Int) (I1 Int) (J1 Bool) (K1 Bool) (L1 Bool) (M1 Bool) (N1 Bool) (O1 Bool) (P1 Int) ) 
    (=>
      (and
        (state N I J K1 M G P1 L H A K O1 M1 B D F N1 L1 J1 C E)
        (let ((a!1 (or (and (not D1) (not C1)) (= (+ B1 (* (- 1) A1) (* (- 1) E1)) 0)))
      (a!2 (or (and (not D) (not F)) (= (+ G (* (- 1) P1) (* (- 1) A)) 0)))
      (a!3 (or (not O1) (not (= (<= Q 0) S))))
      (a!4 (or (not M1) (not (= (<= 0 Q) R)))))
  (and (= B1 I1)
       (= E1 G1)
       (= H1 Q)
       (= I1 H1)
       (= N P1)
       (= M L)
       (= M G)
       (= L V)
       (= L K)
       (= H A)
       (= O1 N1)
       (= M1 L1)
       (= K1 J1)
       (= P (or (not N1) (not O)))
       (= T S)
       (= U R)
       (= W P)
       (= X O)
       (= X U)
       (= Z T)
       (= Z Y)
       (= J O1)
       (= I M1)
       (or D1 C1 (= B1 A1))
       (or D1 (not C1) (= F1 0))
       (or C1 (not D1) (= G1 F1))
       (or F (not D) (= H B))
       (or D F (= G P1))
       (or D (not F) (= B 0))
       (or (= G1 1) (and D1 (not C1)))
       (or (= F1 2) (and (not D1) C1))
       a!1
       (or (= H 1) (and D (not F)))
       (or (= B 2) (and (not D) F))
       a!2
       a!3
       (or O1 (= S (<= 10 Q)))
       a!4
       (or M1 (= R (<= Q (- 10))))
       (= A1 V)))
      )
      (state V U T P I1 B1 A1 H1 G1 E1 Q Z X F1 D1 C1 Y O W S R)
    )
  )
)
(assert
  (forall ( (A Int) (B Int) (C Bool) (D Bool) (E Bool) (F Bool) (G Int) (H Int) (I Bool) (J Bool) (K Int) (L Int) (M Int) (N Int) (O Bool) (P Bool) (Q Bool) (R Bool) (S Bool) (T Bool) (U Int) ) 
    (=>
      (and
        (state N I J P M G U L H A K T R B D F S Q O C E)
        (not O)
      )
      false
    )
  )
)

(check-sat)
(exit)
